objective value:                                10605
t_x_0                                               1 	(obj:30)
t_x_1                                               1 	(obj:42)
t_x_3                                               1 	(obj:28)
t_x_6                                               1 	(obj:7)
t_x_9                                               1 	(obj:40)
t_x_10                                              1 	(obj:42)
t_x_14                                              1 	(obj:35)
t_x_19                                              1 	(obj:17)
t_x_29                                              1 	(obj:12)
t_x_30                                              1 	(obj:32)
t_x_31                                              1 	(obj:26)
t_x_32                                              1 	(obj:0)
t_x_37                                              1 	(obj:4)
t_x_38                                              1 	(obj:78)
t_x_39                                              1 	(obj:2)
t_x_40                                              1 	(obj:7)
t_x_42                                              1 	(obj:0)
t_x_45                                              1 	(obj:25)
t_x_48                                              1 	(obj:3)
t_x_52                                              1 	(obj:0)
t_x_53                                              1 	(obj:31)
t_x_58                                              1 	(obj:18)
t_x_61                                              1 	(obj:8)
t_x_63                                              1 	(obj:45)
t_x_64                                              1 	(obj:5)
t_x_67                                              1 	(obj:14)
t_x_68                                              1 	(obj:50)
t_x_72                                              1 	(obj:56)
t_x_74                                              1 	(obj:30)
t_x_75                                              1 	(obj:17)
t_x_79                                              1 	(obj:15)
t_x_81                                              1 	(obj:7)
t_x_82                                              1 	(obj:13)
t_x_84                                              1 	(obj:12)
t_x_90                                              1 	(obj:14)
t_x_91                                              1 	(obj:18)
t_x_92                                              1 	(obj:9)
t_x_93                                              1 	(obj:7)
t_x_95                                              1 	(obj:12)
t_x_96                                              1 	(obj:8)
t_x_97                                              1 	(obj:36)
t_x_102                                             1 	(obj:40)
t_x_105                                             1 	(obj:23)
t_x_107                                             1 	(obj:49)
t_x_110                                             1 	(obj:35)
t_x_114                                             1 	(obj:16)
t_x_116                                             1 	(obj:34)
t_x_120                                             1 	(obj:17)
t_x_124                                             1 	(obj:26)
t_x_125                                             1 	(obj:0)
t_x_128                                             1 	(obj:8)
t_x_134                                             1 	(obj:32)
t_x_135                                             1 	(obj:18)
t_x_137                                             1 	(obj:10)
t_x_143                                             1 	(obj:21)
t_x_144                                             1 	(obj:33)
t_x_146                                             1 	(obj:9)
t_x_153                                             1 	(obj:5)
t_x_155                                             1 	(obj:12)
t_x_159                                             1 	(obj:22)
t_x_163                                             1 	(obj:6)
t_x_164                                             1 	(obj:5)
t_x_169                                             1 	(obj:31)
t_x_171                                             1 	(obj:9)
t_x_174                                             1 	(obj:0)
t_x_175                                             1 	(obj:3)
t_x_178                                             1 	(obj:3)
t_x_185                                             1 	(obj:3)
t_x_186                                             1 	(obj:2)
t_x_189                                             1 	(obj:38)
t_x_193                                             1 	(obj:14)
t_x_196                                             1 	(obj:21)
t_x_200                                             1 	(obj:25)
t_x_202                                             1 	(obj:15)
t_x_205                                             1 	(obj:21)
t_x_208                                             1 	(obj:24)
t_x_212                                             1 	(obj:4)
t_x_213                                             1 	(obj:20)
t_x_217                                             1 	(obj:4)
t_x_218                                             1 	(obj:29)
t_x_219                                             1 	(obj:21)
t_x_220                                             1 	(obj:20)
t_x_222                                             1 	(obj:8)
t_x_223                                             1 	(obj:22)
t_x_228                                             1 	(obj:36)
t_x_230                                             1 	(obj:4)
t_x_235                                             1 	(obj:30)
t_x_237                                             1 	(obj:7)
t_x_238                                             1 	(obj:10)
t_x_245                                             1 	(obj:5)
t_x_246                                             1 	(obj:16)
t_x_253                                             1 	(obj:14)
t_x_265                                             1 	(obj:10)
t_x_272                                             1 	(obj:34)
t_x_285                                             1 	(obj:9)
t_x_287                                             1 	(obj:18)
t_x_289                                             1 	(obj:32)
t_x_294                                             1 	(obj:3)
t_x_300                                             1 	(obj:2)
t_x_301                                             1 	(obj:0)
t_x_302                                             1 	(obj:1)
t_x_305                                             1 	(obj:5)
t_x_306                                             1 	(obj:17)
t_x_311                                             1 	(obj:6)
t_x_324                                             1 	(obj:33)
t_x_327                                             1 	(obj:15)
t_x_328                                             1 	(obj:42)
t_x_331                                             1 	(obj:29)
t_x_339                                             1 	(obj:25)
t_x_341                                             1 	(obj:39)
t_x_350                                             1 	(obj:15)
t_x_353                                             1 	(obj:18)
t_x_362                                             1 	(obj:36)
t_x_363                                             1 	(obj:45)
t_x_364                                             1 	(obj:21)
t_x_365                                             1 	(obj:42)
t_x_368                                             1 	(obj:5)
t_x_369                                             1 	(obj:33)
t_x_372                                             1 	(obj:4)
t_x_381                                             1 	(obj:2)
t_x_383                                             1 	(obj:3)
t_x_391                                             1 	(obj:9)
t_x_393                                             1 	(obj:44)
t_x_395                                             1 	(obj:6)
t_x_398                                             1 	(obj:15)
t_x_400                                             1 	(obj:58)
t_x_402                                             1 	(obj:6)
t_x_404                                             1 	(obj:7)
t_x_405                                             1 	(obj:52)
t_x_408                                             1 	(obj:12)
t_x_409                                             1 	(obj:18)
t_x_416                                             1 	(obj:8)
t_x_419                                             1 	(obj:1)
t_x_422                                             1 	(obj:5)
t_x_423                                             1 	(obj:7)
t_x_426                                             1 	(obj:16)
t_x_430                                             1 	(obj:33)
t_x_432                                             1 	(obj:14)
t_x_433                                             1 	(obj:7)
t_x_435                                             1 	(obj:6)
t_x_436                                             1 	(obj:8)
t_x_440                                             1 	(obj:0)
t_x_446                                             1 	(obj:4)
t_x_447                                             1 	(obj:18)
t_x_448                                             1 	(obj:3)
t_x_452                                             1 	(obj:8)
t_x_460                                             1 	(obj:4)
t_x_466                                             1 	(obj:14)
t_x_470                                             1 	(obj:63)
t_x_473                                             1 	(obj:16)
t_x_479                                             1 	(obj:4)
t_x_480                                             1 	(obj:12)
t_x_482                                             1 	(obj:9)
t_x_483                                             1 	(obj:15)
t_x_484                                             1 	(obj:1)
t_x_505                                             1 	(obj:28)
t_x_506                                             1 	(obj:10)
t_x_507                                             1 	(obj:31)
t_x_514                                             1 	(obj:12)
t_x_516                                             1 	(obj:10)
t_x_519                                             1 	(obj:4)
t_x_521                                             1 	(obj:16)
t_x_522                                             1 	(obj:18)
t_x_528                                             1 	(obj:9)
t_x_529                                             1 	(obj:47)
t_x_532                                             1 	(obj:26)
t_x_534                                             1 	(obj:25)
t_x_535                                             1 	(obj:3)
t_x_545                                             1 	(obj:0)
t_x_552                                             1 	(obj:7)
t_x_553                                             1 	(obj:12)
t_x_554                                             1 	(obj:40)
t_x_555                                             1 	(obj:33)
t_x_557                                             1 	(obj:0)
t_x_562                                             1 	(obj:24)
t_x_566                                             1 	(obj:31)
t_x_567                                             1 	(obj:4)
t_x_568                                             1 	(obj:25)
t_x_569                                             1 	(obj:34)
t_x_573                                             1 	(obj:25)
t_x_575                                             1 	(obj:19)
t_x_583                                             1 	(obj:17)
t_x_584                                             1 	(obj:9)
t_x_590                                             1 	(obj:8)
t_x_591                                             1 	(obj:36)
t_x_594                                             1 	(obj:7)
t_x_596                                             1 	(obj:1)
t_x_599                                             1 	(obj:5)
t_x_601                                             1 	(obj:9)
t_x_602                                             1 	(obj:6)
t_x_603                                             1 	(obj:18)
t_x_604                                             1 	(obj:27)
t_x_607                                             1 	(obj:5)
t_x_610                                             1 	(obj:19)
t_x_621                                             1 	(obj:8)
t_x_622                                             1 	(obj:8)
t_x_629                                             1 	(obj:34)
t_x_631                                             1 	(obj:18)
t_x_638                                             1 	(obj:28)
t_x_647                                             1 	(obj:31)
t_x_652                                             1 	(obj:14)
t_x_654                                             1 	(obj:17)
t_x_655                                             1 	(obj:27)
t_x_656                                             1 	(obj:6)
t_x_659                                             1 	(obj:8)
t_x_660                                             1 	(obj:37)
t_x_665                                             1 	(obj:19)
t_x_666                                             1 	(obj:12)
t_x_671                                             1 	(obj:43)
t_x_672                                             1 	(obj:21)
t_x_675                                             1 	(obj:23)
t_x_679                                             1 	(obj:73)
t_x_682                                             1 	(obj:0)
t_x_684                                             1 	(obj:41)
t_x_688                                             1 	(obj:1)
t_x_691                                             1 	(obj:42)
t_x_692                                             1 	(obj:34)
t_x_693                                             1 	(obj:50)
t_x_696                                             1 	(obj:18)
t_x_701                                             1 	(obj:2)
t_x_708                                             1 	(obj:49)
t_x_709                                             1 	(obj:2)
t_x_710                                             1 	(obj:8)
t_x_712                                             1 	(obj:0)
t_x_713                                             1 	(obj:11)
t_x_716                                             1 	(obj:13)
t_x_718                                             1 	(obj:0)
t_x_720                                             1 	(obj:9)
t_x_723                                             1 	(obj:20)
t_x_730                                             1 	(obj:27)
t_x_732                                             1 	(obj:39)
t_x_733                                             1 	(obj:37)
t_x_735                                             1 	(obj:13)
t_x_748                                             1 	(obj:2)
t_x_756                                             1 	(obj:21)
t_x_757                                             1 	(obj:35)
t_x_758                                             1 	(obj:18)
t_x_763                                             1 	(obj:24)
t_x_766                                             1 	(obj:15)
t_x_767                                             1 	(obj:7)
t_x_768                                             1 	(obj:38)
t_x_772                                             1 	(obj:7)
t_x_786                                             1 	(obj:3)
t_x_792                                             1 	(obj:6)
t_x_793                                             1 	(obj:7)
t_x_800                                             1 	(obj:1)
t_x_803                                             1 	(obj:2)
t_x_814                                             1 	(obj:4)
t_x_816                                             1 	(obj:13)
t_x_817                                             1 	(obj:10)
t_x_831                                             1 	(obj:22)
t_x_838                                             1 	(obj:0)
t_x_840                                             1 	(obj:27)
t_x_841                                             1 	(obj:17)
t_x_842                                             1 	(obj:11)
t_x_843                                             1 	(obj:17)
t_x_844                                             1 	(obj:64)
t_x_846                                             1 	(obj:23)
t_x_848                                             1 	(obj:10)
t_x_850                                             1 	(obj:19)
t_x_851                                             1 	(obj:10)
t_x_855                                             1 	(obj:46)
t_x_859                                             1 	(obj:17)
t_x_861                                             1 	(obj:14)
t_x_866                                             1 	(obj:3)
t_x_867                                             1 	(obj:9)
t_x_868                                             1 	(obj:43)
t_x_872                                             1 	(obj:5)
t_x_879                                             1 	(obj:5)
t_x_881                                             1 	(obj:1)
t_x_887                                             1 	(obj:27)
t_x_889                                             1 	(obj:12)
t_x_896                                             1 	(obj:46)
t_x_901                                             1 	(obj:38)
t_x_908                                             1 	(obj:0)
t_x_912                                             1 	(obj:16)
t_x_913                                             1 	(obj:17)
t_x_917                                             1 	(obj:0)
t_x_922                                             1 	(obj:2)
t_x_923                                             1 	(obj:43)
t_x_925                                             1 	(obj:28)
t_x_930                                             1 	(obj:2)
t_x_931                                             1 	(obj:17)
t_x_932                                             1 	(obj:23)
t_x_934                                             1 	(obj:23)
t_x_939                                             1 	(obj:5)
t_x_940                                             1 	(obj:31)
t_x_942                                             1 	(obj:19)
t_x_944                                             1 	(obj:38)
t_x_953                                             1 	(obj:0)
t_x_957                                             1 	(obj:21)
t_x_958                                             1 	(obj:3)
t_x_961                                             1 	(obj:32)
t_x_963                                             1 	(obj:2)
t_x_964                                             1 	(obj:32)
t_x_965                                             1 	(obj:7)
t_x_966                                             1 	(obj:7)
t_x_972                                             1 	(obj:19)
t_x_975                                             1 	(obj:0)
t_x_977                                             1 	(obj:16)
t_x_981                                             1 	(obj:2)
t_x_982                                             1 	(obj:11)
t_x_983                                             1 	(obj:25)
t_x_986                                             1 	(obj:16)
t_x_989                                             1 	(obj:7)
t_x_991                                             1 	(obj:4)
t_x_996                                             1 	(obj:29)
t_x_997                                             1 	(obj:13)
t_x_998                                             1 	(obj:10)
t_x_999                                             1 	(obj:8)
t_x_1002                                            1 	(obj:42)
t_x_1007                                            1 	(obj:17)
t_x_1008                                            1 	(obj:37)
t_x_1011                                            1 	(obj:9)
t_x_1015                                            1 	(obj:28)
t_x_1018                                            1 	(obj:33)
t_x_1021                                            1 	(obj:23)
t_x_1024                                            1 	(obj:22)
t_x_1025                                            1 	(obj:11)
t_x_1028                                            1 	(obj:13)
t_x_1032                                            1 	(obj:7)
t_x_1034                                            1 	(obj:9)
t_x_1035                                            1 	(obj:36)
t_x_1037                                            1 	(obj:17)
t_x_1041                                            1 	(obj:11)
t_x_1044                                            1 	(obj:10)
t_x_1054                                            1 	(obj:28)
t_x_1055                                            1 	(obj:15)
t_x_1060                                            1 	(obj:27)
t_x_1064                                            1 	(obj:10)
t_x_1065                                            1 	(obj:7)
t_x_1067                                            1 	(obj:9)
t_x_1070                                            1 	(obj:40)
t_x_1071                                            1 	(obj:6)
t_x_1072                                            1 	(obj:0)
t_x_1074                                            1 	(obj:7)
t_x_1075                                            1 	(obj:13)
t_x_1076                                            1 	(obj:8)
t_x_1079                                            1 	(obj:59)
t_x_1080                                            1 	(obj:38)
t_x_1082                                            1 	(obj:17)
t_x_1090                                            1 	(obj:5)
t_x_1096                                            1 	(obj:23)
t_x_1099                                            1 	(obj:15)
t_x_1102                                            1 	(obj:4)
t_x_1111                                            1 	(obj:44)
t_x_1114                                            1 	(obj:18)
t_x_1115                                            1 	(obj:44)
t_x_1121                                            1 	(obj:39)
t_x_1123                                            1 	(obj:18)
t_x_1131                                            1 	(obj:29)
t_x_1132                                            1 	(obj:37)
t_x_1133                                            1 	(obj:5)
t_x_1137                                            1 	(obj:10)
t_x_1140                                            1 	(obj:2)
t_x_1147                                            1 	(obj:39)
t_x_1156                                            1 	(obj:17)
t_x_1157                                            1 	(obj:31)
t_x_1158                                            1 	(obj:10)
t_x_1159                                            1 	(obj:53)
t_x_1162                                            1 	(obj:29)
t_x_1170                                            1 	(obj:7)
t_x_1171                                            1 	(obj:6)
t_x_1174                                            1 	(obj:8)
t_x_1175                                            1 	(obj:7)
t_x_1180                                            1 	(obj:0)
t_x_1181                                            1 	(obj:24)
t_x_1185                                            1 	(obj:25)
t_x_1187                                            1 	(obj:11)
t_x_1188                                            1 	(obj:19)
t_x_1193                                            1 	(obj:4)
t_x_1199                                            1 	(obj:25)
t_x_1202                                            1 	(obj:47)
t_x_1216                                            1 	(obj:37)
t_x_1220                                            1 	(obj:33)
t_x_1225                                            1 	(obj:4)
t_x_1228                                            1 	(obj:14)
t_x_1230                                            1 	(obj:46)
t_x_1231                                            1 	(obj:12)
t_x_1234                                            1 	(obj:0)
t_x_1237                                            1 	(obj:39)
t_x_1240                                            1 	(obj:21)
t_x_1242                                            1 	(obj:3)
t_x_1245                                            1 	(obj:19)
t_x_1246                                            1 	(obj:0)
t_x_1253                                            1 	(obj:0)
t_x_1254                                            1 	(obj:21)
t_x_1256                                            1 	(obj:52)
t_x_1261                                            1 	(obj:1)
t_x_1262                                            1 	(obj:3)
t_x_1268                                            1 	(obj:36)
t_x_1269                                            1 	(obj:5)
t_x_1273                                            1 	(obj:10)
t_x_1278                                            1 	(obj:21)
t_x_1280                                            1 	(obj:42)
t_x_1283                                            1 	(obj:43)
t_x_1284                                            1 	(obj:13)
t_x_1286                                            1 	(obj:23)
t_x_1293                                            1 	(obj:10)
t_x_1294                                            1 	(obj:5)
t_x_1295                                            1 	(obj:21)
t_x_1297                                            1 	(obj:12)
t_x_1298                                            1 	(obj:5)
t_x_1299                                            1 	(obj:3)
t_x_1304                                            1 	(obj:22)
t_x_1305                                            1 	(obj:19)
t_x_1307                                            1 	(obj:7)
t_x_1309                                            1 	(obj:17)
t_x_1316                                            1 	(obj:20)
t_x_1320                                            1 	(obj:20)
t_x_1322                                            1 	(obj:15)
t_x_1330                                            1 	(obj:2)
t_x_1338                                            1 	(obj:7)
t_x_1346                                            1 	(obj:3)
t_x_1355                                            1 	(obj:11)
t_x_1359                                            1 	(obj:8)
t_x_1360                                            1 	(obj:14)
t_x_1369                                            1 	(obj:40)
t_x_1371                                            1 	(obj:8)
t_x_1374                                            1 	(obj:1)
t_x_1376                                            1 	(obj:12)
t_x_1380                                            1 	(obj:8)
t_x_1381                                            1 	(obj:54)
t_x_1385                                            1 	(obj:12)
t_x_1391                                            1 	(obj:33)
t_x_1392                                            1 	(obj:23)
t_x_1398                                            1 	(obj:21)
t_x_1401                                            1 	(obj:0)
t_x_1402                                            1 	(obj:2)
t_x_1404                                            1 	(obj:0)
t_x_1405                                            1 	(obj:8)
t_x_1406                                            1 	(obj:28)
t_x_1411                                            1 	(obj:4)
t_x_1412                                            1 	(obj:51)
t_x_1417                                            1 	(obj:15)
t_x_1419                                            1 	(obj:38)
t_x_1423                                            1 	(obj:28)
t_x_1425                                            1 	(obj:18)
t_x_1434                                            1 	(obj:29)
t_x_1437                                            1 	(obj:24)
t_x_1439                                            1 	(obj:20)
t_x_1441                                            1 	(obj:6)
t_x_1442                                            1 	(obj:1)
t_x_1443                                            1 	(obj:52)
t_x_1447                                            1 	(obj:27)
t_x_1449                                            1 	(obj:1)
t_x_1455                                            1 	(obj:13)
t_x_1456                                            1 	(obj:7)
t_x_1459                                            1 	(obj:14)
t_x_1468                                            1 	(obj:0)
t_x_1476                                            1 	(obj:6)
t_x_1478                                            1 	(obj:13)
t_x_1479                                            1 	(obj:23)
t_x_1484                                            1 	(obj:19)
t_x_1485                                            1 	(obj:3)
t_x_1491                                            1 	(obj:16)
t_x_1498                                            1 	(obj:5)
t_x_1501                                            1 	(obj:3)
t_x_1506                                            1 	(obj:10)
t_x_1507                                            1 	(obj:12)
t_x_1513                                            1 	(obj:17)
t_x_1519                                            1 	(obj:11)
t_x_1521                                            1 	(obj:5)
t_x_1522                                            1 	(obj:22)
t_x_1529                                            1 	(obj:12)
t_x_1531                                            1 	(obj:3)
t_x_1533                                            1 	(obj:37)
t_x_1541                                            1 	(obj:14)
t_x_1543                                            1 	(obj:30)
t_x_1548                                            1 	(obj:22)
t_x_1549                                            1 	(obj:21)
t_x_1554                                            1 	(obj:41)
t_x_1555                                            1 	(obj:48)
t_x_1564                                            1 	(obj:9)
t_x_1570                                            1 	(obj:11)
t_x_1572                                            1 	(obj:9)
t_x_1575                                            1 	(obj:17)
t_x_1582                                            1 	(obj:56)
t_x_1588                                            1 	(obj:18)
t_x_1589                                            1 	(obj:23)
t_x_1590                                            1 	(obj:16)
t_x_1608                                            1 	(obj:17)
t_x_1610                                            1 	(obj:9)
t_x_1615                                            1 	(obj:2)
t_x_1620                                            1 	(obj:20)
t_x_1622                                            1 	(obj:32)
t_x_1623                                            1 	(obj:18)
t_x_1625                                            1 	(obj:19)
t_x_1627                                            1 	(obj:33)
t_x_1628                                            1 	(obj:20)
t_x_1636                                            1 	(obj:22)
t_x_1641                                            1 	(obj:17)
t_x_1648                                            1 	(obj:43)
t_x_1652                                            1 	(obj:24)
t_x_1657                                            1 	(obj:31)
t_x_1659                                            1 	(obj:7)
t_x_1662                                            1 	(obj:39)
t_x_1663                                            1 	(obj:9)
t_x_1665                                            1 	(obj:20)
t_x_1672                                            1 	(obj:40)
t_x_1674                                            1 	(obj:8)
t_x_1676                                            1 	(obj:30)
t_x_1679                                            1 	(obj:22)
t_x_1682                                            1 	(obj:1)
t_x_1687                                            1 	(obj:35)
t_x_1689                                            1 	(obj:38)
t_x_1693                                            1 	(obj:4)
t_x_1701                                            1 	(obj:13)
t_x_1704                                            1 	(obj:2)
t_x_1708                                            1 	(obj:12)
t_x_1709                                            1 	(obj:0)
t_x_1710                                            1 	(obj:12)
t_x_1711                                            1 	(obj:45)
t_x_1713                                            1 	(obj:5)
t_x_1715                                            1 	(obj:7)
t_x_1719                                            1 	(obj:9)
t_x_1721                                            1 	(obj:9)
t_x_1722                                            1 	(obj:14)
t_x_1724                                            1 	(obj:32)
t_x_1728                                            1 	(obj:24)
t_x_1734                                            1 	(obj:12)
t_x_1735                                            1 	(obj:1)
t_x_1736                                            1 	(obj:9)
t_x_1738                                            1 	(obj:4)
t_x_1739                                            1 	(obj:1)
t_x_1750                                            1 	(obj:31)
t_x_1753                                            1 	(obj:19)
t_x_1755                                            1 	(obj:18)
t_x_1756                                            1 	(obj:2)
t_x_1759                                            1 	(obj:9)
t_x_1760                                            1 	(obj:33)
t_x_1768                                            1 	(obj:10)
t_x_1770                                            1 	(obj:11)
t_x_1772                                            1 	(obj:15)
t_x_1773                                            1 	(obj:1)
t_x_1779                                            1 	(obj:14)
t_x_1781                                            1 	(obj:30)
t_x_1790                                            1 	(obj:0)
t_x_1798                                            1 	(obj:21)
t_x_1805                                            1 	(obj:24)
t_x_1812                                            1 	(obj:10)
t_x_1815                                            1 	(obj:17)
t_x_1818                                            1 	(obj:0)
t_x_1830                                            1 	(obj:23)
t_x_1831                                            1 	(obj:29)
t_x_1832                                            1 	(obj:28)
t_x_1834                                            1 	(obj:48)
t_x_1839                                            1 	(obj:22)
t_x_1852                                            1 	(obj:5)
t_x_1855                                            1 	(obj:8)
t_x_1858                                            1 	(obj:5)
t_x_1866                                            1 	(obj:34)
t_x_1870                                            1 	(obj:28)
t_x_1872                                            1 	(obj:17)
t_x_1875                                            1 	(obj:6)
t_x_1882                                            1 	(obj:28)
t_x_1885                                            1 	(obj:2)
t_x_1886                                            1 	(obj:25)
t_x_1895                                            1 	(obj:49)
t_x_1898                                            1 	(obj:5)
t_x_1908                                            1 	(obj:3)
t_x_1909                                            1 	(obj:14)
t_x_1910                                            1 	(obj:26)
t_x_1912                                            1 	(obj:4)
t_x_1916                                            1 	(obj:6)
t_x_1921                                            1 	(obj:14)
t_x_1922                                            1 	(obj:24)
t_x_1925                                            1 	(obj:0)
t_x_1926                                            1 	(obj:40)
t_x_1927                                            1 	(obj:8)
t_x_1932                                            1 	(obj:19)
t_x_1938                                            1 	(obj:19)
t_x_1939                                            1 	(obj:3)
t_x_1941                                            1 	(obj:48)
t_x_1945                                            1 	(obj:14)
t_x_1946                                            1 	(obj:29)
t_x_1947                                            1 	(obj:31)
t_x_1950                                            1 	(obj:22)
t_x_1951                                            1 	(obj:15)
t_x_1955                                            1 	(obj:2)
t_x_1956                                            1 	(obj:3)
t_x_1957                                            1 	(obj:23)
t_x_1960                                            1 	(obj:1)
t_x_1962                                            1 	(obj:8)
t_x_1965                                            1 	(obj:26)
t_x_1970                                            1 	(obj:9)
t_x_1974                                            1 	(obj:3)
t_x_1977                                            1 	(obj:19)
t_x_1979                                            1 	(obj:16)
t_x_1981                                            1 	(obj:37)
t_x_1983                                            1 	(obj:40)
t_x_1984                                            1 	(obj:1)
t_x_1987                                            1 	(obj:3)
t_x_1989                                            1 	(obj:15)
t_x_1993                                            1 	(obj:15)
t_x_1994                                            1 	(obj:2)
